db/data/35641069073512085013024112802614020518.z3.out
-------------------
2500.165589252
